\Generated by Cardinal Operations

Maximize
   443 x_0_0 + 522 x_1_0 + 300 x_2_0 + 767 x_3_0 + 300 x_4_0 + 309 x_5_0 
   + 598 x_6_0 + 460 x_7_0 + 318 x_8_0 + 126 x_9_0 + 593 x_10_0 
   + 871 x_11_0 + 858 x_12_0 + 321 x_13_0 + 275 x_14_0 + 700 x_15_0 
   + 685 x_16_0 + 940 x_17_0 + 522 x_18_0 + 763 x_19_0 
Subject To
 capacity_constraint: 104 x_0_0 + 368 x_1_0 + 483 x_2_0 + 165 x_3_0 
   + 105 x_4_0 + 123 x_5_0 + 131 x_6_0 + 341 x_7_0 + 258 x_8_0 + 469 x_9_0 
   + 387 x_10_0 + 425 x_11_0 + 482 x_12_0 + 495 x_13_0 + 305 x_14_0 
   + 377 x_15_0 + 318 x_16_0 + 56 x_17_0 + 213 x_18_0 + 472 x_19_0 <= 4466
Generals
 x_0_0  x_1_0  x_2_0  x_3_0  x_4_0  x_5_0  x_6_0  x_7_0  x_8_0  x_9_0  
 x_10_0  x_11_0  x_12_0  x_13_0  x_14_0  x_15_0  x_16_0  x_17_0  x_18_0  
 x_19_0  
END

